proyfinal/src/viki/013/experimentInOfficeAgust.take6.output/994a3fc2-8f53-4688-bb06-3c42a8bff843.als.out
Reading from standard input... Use '--help' for help.
============================[ Problem Statistics ]=============================
|                                                                             |
|  Number of variables:         87638                                         |
|  Number of clauses:          161767                                         |
|  Parse time:                   0.04 s                                       |
|                                                                             |
============================[ Search Statistics ]==============================
| Conflicts |          ORIGINAL         |          LEARNT          | Progress |
|           |    Vars  Clauses Literals |    Limit  Clauses Lit/Cl |          |
===============================================================================
|       100 |   63229   108210   270498 |    39677      100     14 | 27.852 % |
|       250 |   63228   108210   270498 |    43644      249     90 | 27.853 % |
|       475 |   63228   108166   270408 |    48009      474     84 | 27.853 % |
|       812 |   63228   108166   270408 |    52810      811     87 | 27.853 % |
|      1318 |   63199   108048   270133 |    58091     1316     83 | 27.886 % |
|      2077 |   63199   108048   270133 |    63900     2075     71 | 27.886 % |
|      3216 |   63199   108048   270133 |    70290     3214     74 | 27.886 % |
|      4924 |   63199   108048   270133 |    77319     4922     73 | 27.886 % |
|      7486 |   63173   107905   269821 |    85051     6679     72 | 27.916 % |
|     11330 |   63173   107905   269821 |    93556    10523     74 | 27.916 % |
|     17096 |   49753    67460   170490 |   102911    14949     68 | 43.229 % |
===============================================================================
restarts              : 63
conflicts             : 18223          (6320 /sec)
decisions             : 55299          (0.00 % random) (19179 /sec)
propagations          : 27923334       (9684714 /sec)
conflict literals     : 1167596        (59.36 % deleted)
Memory used           : 28.17 MB
CPU time              : 2.88324 s

UNSATISFIABLE
